% Logging successfully configured
=====UNKNOWN=====
% time elapsed: 1799.93 s
%%%mzn-stat: initTime=0.045909286
%%%mzn-stat: nodes=2279946
%%%mzn-stat: restarts=0
%%%mzn-stat: peakDepth=106
%%%mzn-stat: solveTime=1792.80825725
%%%mzn-stat: variables=1830
%%%mzn-stat: propagators=12650
%%%mzn-stat: failures=970074
%%%mzn-stat: propagations=1343170938
%%%mzn-stat: nogoods=970074
%%%mzn-stat: numAtomicConstraintsPropagated=0
%%%mzn-stat: circuitNumber11176PropagationsThatFoundConflict=735540
%%%mzn-stat: circuitNumber11176TotalFixedEdgesAtConflict=103736907
%%%mzn-stat: circuitNumber11176NumberOfConflicts=735540
%%%mzn-stat: circuitNumber11176PropagationsThatPruned=629064
%%%mzn-stat: circuitNumber11176PropagationsTotal=3499522
%%%mzn-stat: AverageConflictSize=81.81452136641123
%%%mzn-stat: NumUnitNogoodsLearned=0
%%%mzn-stat: AverageLearnedNogoodLength=92.20911806728147
%%%mzn-stat: AverageBacktrackAmount=0
%%%mzn-stat: AverageLbd=59.37164587443844
%%%mzn-stat: 2AutonomousSearchNumBackupCalled=0
%%%mzn-stat: 2AutonomousSearchNumPredicatesRemoved=0
%%%mzn-stat: 2AutonomousSearchNumCalls=0
%%%mzn-stat: 2AutonomousSearchNumPredicatesAdded=10281
%%%mzn-stat: 2AutonomousSearchAverageSizeOfHeap=0
%%%mzn-stat: 2AutonomousSearchNumAssignedPredicatesEncountered=0
%%%mzn-stat-end
